instances/shortest_path/discrete/shortest_path_6_3.lp
\ Model nohadani_6_3
\ LP format - for model browsing. Use MPS format to capture full model detail.
\ Signature: 0x9d6f60db6d04e09d
Minimize
  55.02726596879042 y[0,1] + 13 y[0,2] + 60.8276253029822 y[0,3]
   + 51.0098029794274 y[0,4] + 45.35416188179427 y[0,5]
   + 55.02726596879042 y[1,0] + 68.00735254367721 y[1,2]
   + 62.43396511515186 y[1,4] + 30.08321791298265 y[1,5] + 13 y[2,0]
   + 68.00735254367721 y[2,1] + 61.1310068623117 y[2,3]
   + 57.0701322935211 y[2,4] + 56.32051136131489 y[2,5]
   + 60.8276253029822 y[3,0] + 61.1310068623117 y[3,2]
   + 27.16615541441225 y[3,4] + 51.0098029794274 y[4,0]
   + 62.43396511515186 y[4,1] + 57.0701322935211 y[4,2]
   + 27.16615541441225 y[4,3] + 45.35416188179427 y[5,0]
   + 30.08321791298265 y[5,1] + 56.32051136131489 y[5,2] + x[0,1] + x[0,2]
   + x[0,3] + x[0,4] + x[0,5] + x[1,0] + x[1,2] + x[1,4] + x[1,5] + x[2,0]
   + x[2,1] + x[2,3] + x[2,4] + x[2,5] + x[3,0] + x[3,2] + x[3,4] + x[4,0]
   + x[4,1] + x[4,2] + x[4,3] + x[5,0] + x[5,1] + x[5,2]
   + 5.502726596879042 r[0,1] + 1.3 r[0,2] + 6.08276253029822 r[0,3]
   + 5.100980297942741 r[0,4] + 4.535416188179427 r[0,5]
   + 5.502726596879042 r[1,0] + 6.800735254367722 r[1,2]
   + 6.243396511515186 r[1,4] + 3.008321791298265 r[1,5] + 1.3 r[2,0]
   + 6.800735254367722 r[2,1] + 6.113100686231171 r[2,3]
   + 5.707013229352111 r[2,4] + 5.63205113613149 r[2,5]
   + 6.08276253029822 r[3,0] + 6.113100686231171 r[3,2]
   + 2.716615541441225 r[3,4] + 5.100980297942741 r[4,0]
   + 6.243396511515186 r[4,1] + 5.707013229352111 r[4,2]
   + 2.716615541441225 r[4,3] + 4.535416188179427 r[5,0]
   + 3.008321791298265 r[5,1] + 5.63205113613149 r[5,2]
Subject To
 flow_cons_inner_nodes[0]: - y[0,1] - y[0,2] - y[0,3] - y[0,4] - y[0,5]
   + y[1,0] + y[2,0] + y[3,0] + y[4,0] + y[5,0] = 0
 flow_cons_inner_nodes[1]: y[0,1] - y[1,0] - y[1,2] - y[1,4] - y[1,5]
   + y[2,1] + y[4,1] + y[5,1] = 0
 flow_cons_inner_nodes[2]: y[0,2] + y[1,2] - y[2,0] - y[2,1] - y[2,3]
   - y[2,4] - y[2,5] + y[3,2] + y[4,2] + y[5,2] = 0
 flow_cons_inner_nodes[4]: y[0,4] + y[1,4] + y[2,4] + y[3,4] - y[4,0]
   - y[4,1] - y[4,2] - y[4,3] = 0
 flow_cons_source: - y[0,3] - y[2,3] + y[3,0] + y[3,2] + y[3,4] - y[4,3]
   = 1
 flow_cons_target: y[0,5] + y[1,5] + y[2,5] - y[5,0] - y[5,1] - y[5,2] = 1
 primal_lower: 3.236139130669701 x[0,1] + 1.987396618687603 x[0,2]
   + 3.318313472236053 x[0,3] + 3.972780083784462 x[0,4]
   + 2.103136354430451 x[0,5] + 0.2844880760540279 x[1,0]
   + 2.682440340237738 x[1,2] + 2.657069434312874 x[1,4]
   + 4.721091691183587 x[1,5] + 1.061584646560464 x[2,0]
   + 0.6280920038342676 x[2,1] + 1.979940461674811 x[2,3]
   + 4.821161309650445 x[2,4] + 8.87625e-05 x[2,5]
   + 4.003557006131598 x[3,0] + 5.328814324006514 x[3,2]
   + 0.9565508723445498 x[3,4] + 5.329740125124403 x[4,0]
   + 4.048982572654473 x[4,1] + 3.655240880365751 x[4,2]
   + 0.5372021223051333 x[4,3] + 4.656001609121946 x[5,0]
   + 2.7267817634202 x[5,1] + 3.162338252967619 x[5,2] + 59 u[0,1]
   + 87 u[0,2] + 65 u[0,3] + 14 u[0,4] + 99 u[0,5] + 37 u[1,0] + 44 u[1,2]
   + 99 u[1,4] + 72 u[1,5] + 73 u[2,0] + 31 u[2,1] + 98 u[2,3] + 87 u[2,4]
   + 55 u[2,5] + 48 u[3,0] + 72 u[3,2] + 28 u[3,4] + 47 u[4,0] + 56 u[4,1]
   + u[4,2] + 88 u[4,3] + 79 u[5,0] + 19 u[5,1] + 66 u[5,2] <= 129
 mccormick1[0,1]: - u[0,1] + r[0,1] <= 0
 mccormick1[0,2]: - u[0,2] + r[0,2] <= 0
 mccormick1[0,3]: - u[0,3] + r[0,3] <= 0
 mccormick1[0,4]: - u[0,4] + r[0,4] <= 0
 mccormick1[0,5]: - u[0,5] + r[0,5] <= 0
 mccormick1[1,0]: - u[1,0] + r[1,0] <= 0
 mccormick1[1,2]: - u[1,2] + r[1,2] <= 0
 mccormick1[1,4]: - u[1,4] + r[1,4] <= 0
 mccormick1[1,5]: - u[1,5] + r[1,5] <= 0
 mccormick1[2,0]: - u[2,0] + r[2,0] <= 0
 mccormick1[2,1]: - u[2,1] + r[2,1] <= 0
 mccormick1[2,3]: - u[2,3] + r[2,3] <= 0
 mccormick1[2,4]: - u[2,4] + r[2,4] <= 0
 mccormick1[2,5]: - u[2,5] + r[2,5] <= 0
 mccormick1[3,0]: - u[3,0] + r[3,0] <= 0
 mccormick1[3,2]: - u[3,2] + r[3,2] <= 0
 mccormick1[3,4]: - u[3,4] + r[3,4] <= 0
 mccormick1[4,0]: - u[4,0] + r[4,0] <= 0
 mccormick1[4,1]: - u[4,1] + r[4,1] <= 0
 mccormick1[4,2]: - u[4,2] + r[4,2] <= 0
 mccormick1[4,3]: - u[4,3] + r[4,3] <= 0
 mccormick1[5,0]: - u[5,0] + r[5,0] <= 0
 mccormick1[5,1]: - u[5,1] + r[5,1] <= 0
 mccormick1[5,2]: - u[5,2] + r[5,2] <= 0
 mccormick2[0,1]: - y[0,1] + r[0,1] <= 0
 mccormick2[0,2]: - y[0,2] + r[0,2] <= 0
 mccormick2[0,3]: - y[0,3] + r[0,3] <= 0
 mccormick2[0,4]: - y[0,4] + r[0,4] <= 0
 mccormick2[0,5]: - y[0,5] + r[0,5] <= 0
 mccormick2[1,0]: - y[1,0] + r[1,0] <= 0
 mccormick2[1,2]: - y[1,2] + r[1,2] <= 0
 mccormick2[1,4]: - y[1,4] + r[1,4] <= 0
 mccormick2[1,5]: - y[1,5] + r[1,5] <= 0
 mccormick2[2,0]: - y[2,0] + r[2,0] <= 0
 mccormick2[2,1]: - y[2,1] + r[2,1] <= 0
 mccormick2[2,3]: - y[2,3] + r[2,3] <= 0
 mccormick2[2,4]: - y[2,4] + r[2,4] <= 0
 mccormick2[2,5]: - y[2,5] + r[2,5] <= 0
 mccormick2[3,0]: - y[3,0] + r[3,0] <= 0
 mccormick2[3,2]: - y[3,2] + r[3,2] <= 0
 mccormick2[3,4]: - y[3,4] + r[3,4] <= 0
 mccormick2[4,0]: - y[4,0] + r[4,0] <= 0
 mccormick2[4,1]: - y[4,1] + r[4,1] <= 0
 mccormick2[4,2]: - y[4,2] + r[4,2] <= 0
 mccormick2[4,3]: - y[4,3] + r[4,3] <= 0
 mccormick2[5,0]: - y[5,0] + r[5,0] <= 0
 mccormick2[5,1]: - y[5,1] + r[5,1] <= 0
 mccormick2[5,2]: - y[5,2] + r[5,2] <= 0
 mccormick3[0,1]: - y[0,1] - u[0,1] + r[0,1] >= -1
 mccormick3[0,2]: - y[0,2] - u[0,2] + r[0,2] >= -1
 mccormick3[0,3]: - y[0,3] - u[0,3] + r[0,3] >= -1
 mccormick3[0,4]: - y[0,4] - u[0,4] + r[0,4] >= -1
 mccormick3[0,5]: - y[0,5] - u[0,5] + r[0,5] >= -1
 mccormick3[1,0]: - y[1,0] - u[1,0] + r[1,0] >= -1
 mccormick3[1,2]: - y[1,2] - u[1,2] + r[1,2] >= -1
 mccormick3[1,4]: - y[1,4] - u[1,4] + r[1,4] >= -1
 mccormick3[1,5]: - y[1,5] - u[1,5] + r[1,5] >= -1
 mccormick3[2,0]: - y[2,0] - u[2,0] + r[2,0] >= -1
 mccormick3[2,1]: - y[2,1] - u[2,1] + r[2,1] >= -1
 mccormick3[2,3]: - y[2,3] - u[2,3] + r[2,3] >= -1
 mccormick3[2,4]: - y[2,4] - u[2,4] + r[2,4] >= -1
 mccormick3[2,5]: - y[2,5] - u[2,5] + r[2,5] >= -1
 mccormick3[3,0]: - y[3,0] - u[3,0] + r[3,0] >= -1
 mccormick3[3,2]: - y[3,2] - u[3,2] + r[3,2] >= -1
 mccormick3[3,4]: - y[3,4] - u[3,4] + r[3,4] >= -1
 mccormick3[4,0]: - y[4,0] - u[4,0] + r[4,0] >= -1
 mccormick3[4,1]: - y[4,1] - u[4,1] + r[4,1] >= -1
 mccormick3[4,2]: - y[4,2] - u[4,2] + r[4,2] >= -1
 mccormick3[4,3]: - y[4,3] - u[4,3] + r[4,3] >= -1
 mccormick3[5,0]: - y[5,0] - u[5,0] + r[5,0] >= -1
 mccormick3[5,1]: - y[5,1] - u[5,1] + r[5,1] >= -1
 mccormick3[5,2]: - y[5,2] - u[5,2] + r[5,2] >= -1
Bounds
Binaries
 y[0,1] y[0,2] y[0,3] y[0,4] y[0,5] y[1,0] y[1,2] y[1,4] y[1,5] y[2,0]
 y[2,1] y[2,3] y[2,4] y[2,5] y[3,0] y[3,2] y[3,4] y[4,0] y[4,1] y[4,2]
 y[4,3] y[5,0] y[5,1] y[5,2] x[0,1] x[0,2] x[0,3] x[0,4] x[0,5] x[1,0]
 x[1,2] x[1,4] x[1,5] x[2,0] x[2,1] x[2,3] x[2,4] x[2,5] x[3,0] x[3,2]
 x[3,4] x[4,0] x[4,1] x[4,2] x[4,3] x[5,0] x[5,1] x[5,2] u[0,1] u[0,2]
 u[0,3] u[0,4] u[0,5] u[1,0] u[1,2] u[1,4] u[1,5] u[2,0] u[2,1] u[2,3]
 u[2,4] u[2,5] u[3,0] u[3,2] u[3,4] u[4,0] u[4,1] u[4,2] u[4,3] u[5,0]
 u[5,1] u[5,2] r[0,1] r[0,2] r[0,3] r[0,4] r[0,5] r[1,0] r[1,2] r[1,4]
 r[1,5] r[2,0] r[2,1] r[2,3] r[2,4] r[2,5] r[3,0] r[3,2] r[3,4] r[4,0]
 r[4,1] r[4,2] r[4,3] r[5,0] r[5,1] r[5,2]
End
