instances/shortest_path/discrete/shortest_path_6_3.kp
79816
129

[3.2361391306697014 1.9873966186876026 3.318313472236053 3.972780083784462 2.1031363544304513 0.2844880760540279 2.6824403402377377 2.6570694343128745 4.721091691183587 1.0615846465604637 0.6280920038342676 1.9799404616748113 4.821161309650445 8.876254380806026e-05 4.003557006131598 5.3288143240065144 0.9565508723445498 5.3297401251244025 4.048982572654473 3.655240880365751 0.5372021223051333 4.656001609121946 2.7267817634202003 3.162338252967619]

[59 87 65 14 99 37 44 99 72 73 31 98 87 55 48 72 28 47 56 1 88 79 19 66]
